param fuelCost:  1  2  3  4  5  6  7  8  9  10  11  12  13 :=
1  100  3  5  5  7  4  9  2  8  10  6  10  6
2  3  100  4  5  8  8  5  8  8  7  5  9  6
3  5  4  100  2  9  4  7  3  7  7  3  9  8
4  5  5  2  100  6  9  4  4  6  3  6  5  8
5  7  8  9  6  100  8  8  6  10  6  9  7  10
6  4  8  4  9  8  100  10  3  6  6  3  4  4
7  9  5  7  4  8  10  100  5  3  4  6  3  7
8  2  8  3  4  6  3  5  100  5  4  3  10  10
9  8  8  7  6  10  6  3  5  100  10  3  10  9
10  10  7  7  3  6  6  4  4  10  100  9  5  5
11  6  5  3  6  9  3  6  3  3  9  100  7  5
12  10  9  9  5  7  4  3  10  10  5  7  100  8
13  6  6  8  8  10  4  7  10  9  5  5  8  100
;
param timeCost:  1  2  3  4  5  6  7  8  9  10  11  12  13 :=
1  100  2  100  100  2  8  10  100  9  100  4  100  7
2  2  100  4  100  100  9  100  7  10  100  100  100  100
3  100  4  100  5  100  100  100  100  2  100  100  100  100
4  100  100  5  100  4  100  9  9  100  100  100  100  100
5  2  100  100  4  100  9  100  100  100  100  2  100  100
6  8  9  100  100  9  100  4  100  100  100  100  100  100
7  10  100  100  9  100  4  100  10  3  100  100  100  100
8  100  7  100  9  100  100  10  100  6  100  100  10  100
9  9  10  2  100  100  100  3  6  100  6  100  100  100
10  100  100  100  100  100  100  100  100  6  100  6  4  100
11  4  100  100  100  2  100  100  100  100  6  100  5  6
12  100  100  100  100  100  100  100  10  100  4  5  100  9
13  7  100  100  100  100  100  100  100  100  100  6  9  100
;
param mst:  1  2  3  4  5  6  7  8  9  10  11  12  13 :=
1  .  1  0  0  1  0  0  0  0  0  0  0  0
2  .  .  1  0  0  0  0  0  0  0  0  0  0
3  .  .  .  0  0  0  0  0  1  0  0  0  0
4  .  .  .  .  1  0  0  0  0  0  0  0  0
5  .  .  .  .  .  0  0  0  0  0  1  0  0
6  .  .  .  .  .  .  1  0  0  0  0  0  0
7  .  .  .  .  .  .  .  0  1  0  0  0  0
8  .  .  .  .  .  .  .  .  1  0  0  0  0
9  .  .  .  .  .  .  .  .  .  0  0  0  0
10  .  .  .  .  .  .  .  .  .  .  0  1  0
11  .  .  .  .  .  .  .  .  .  .  .  1  1
12  .  .  .  .  .  .  .  .  .  .  .  .  0
13  .  .  .  .  .  .  .  .  .  .  .  .  .
;
param mstHalf:  1  2  3  4  5  6  7  8  9  10  11  12  13 :=
1  .  1  0  0  1  0  0  0  0  0  0  0  0
2  .  .  1  0  0  0  0  0  0  0  0  0  0
3  .  .  .  0  0  0  0  0  1  0  0  0  0
4  .  .  .  .  0  0  0  0  0  0  0  0  0
5  .  .  .  .  .  0  0  0  0  0  1  0  0
6  .  .  .  .  .  .  0  0  0  0  0  0  0
7  .  .  .  .  .  .  .  0  1  0  0  0  0
8  .  .  .  .  .  .  .  .  0  0  0  0  0
9  .  .  .  .  .  .  .  .  .  0  0  0  0
10  .  .  .  .  .  .  .  .  .  .  0  0  0
11  .  .  .  .  .  .  .  .  .  .  .  0  0
12  .  .  .  .  .  .  .  .  .  .  .  .  0
13  .  .  .  .  .  .  .  .  .  .  .  .  .
;
param mstEdges:  1  2 :=
1  1  2
2  1  5
3  3  9
4  5  11
5  7  9
6  2  3
7  4  5
8  6  7
9  10  12
10  11  12
11  8  9
12  11  13
;
